30 13 65
14 28 32 13 19 12 3 13 29 11 30 13 29 5 32 9 29 17 28 29 23 22 21 17 11 5 23 15 12 13 
63 42 55 37 24 26 29 34 59 55 25 65 25 35 2 8 33 3 13 7 46 53 44 6 5 14 36 26 6 65 
18 3
27 7
2 30
14 2
25 28
8 11
7 2
26 30
16 10
14 8
16 14
23 12
7 27
